objective value:                                 -267
t_x9                                                1 	(obj:-100)
t_x71                                               1 	(obj:-100)
t_x138                                              1 	(obj:-100)
t_y71_111                                           1 	(obj:1)
t_y71_138                                           1 	(obj:1)
t_y105_138                                          1 	(obj:1)
t_y9_46                                             1 	(obj:1)
t_y9_198                                            1 	(obj:1)
t_y5_138                                            1 	(obj:1)
t_y6_9                                              1 	(obj:1)
t_y9_102                                            1 	(obj:1)
t_y71_140                                           1 	(obj:1)
t_y90_138                                           1 	(obj:1)
t_y117_138                                          1 	(obj:1)
t_y9_58                                             1 	(obj:1)
t_y30_138                                           1 	(obj:1)
t_y9_153                                            1 	(obj:1)
t_y71_105                                           1 	(obj:1)
t_y9_195                                            1 	(obj:1)
t_y9_85                                             1 	(obj:1)
t_y48_71                                            1 	(obj:1)
t_y84_138                                           1 	(obj:1)
t_y71_193                                           1 	(obj:1)
t_y49_71                                            1 	(obj:1)
t_y65_71                                            1 	(obj:1)
t_y71_134                                           1 	(obj:1)
t_y71_89                                            1 	(obj:1)
t_y22_138                                           1 	(obj:1)
t_y9_106                                            1 	(obj:1)
t_y71_88                                            1 	(obj:1)
t_y71_78                                            1 	(obj:1)
t_y25_138                                           1 	(obj:1)
t_y9_52                                             1 	(obj:1)
t_y115_138                                          1 	(obj:1)
t_y71_204                                           1 	(obj:1)
t_y71_159                                           1 	(obj:1)
